objective value:                                11645
t_x_0                                               1 	(obj:1)
t_x_5                                               1 	(obj:47)
t_x_6                                               1 	(obj:14)
t_x_7                                               1 	(obj:30)
t_x_8                                               1 	(obj:21)
t_x_9                                               1 	(obj:3)
t_x_12                                              1 	(obj:4)
t_x_13                                              1 	(obj:57)
t_x_14                                              1 	(obj:16)
t_x_15                                              1 	(obj:39)
t_x_24                                              1 	(obj:43)
t_x_25                                              1 	(obj:12)
t_x_26                                              1 	(obj:31)
t_x_33                                              1 	(obj:1)
t_x_37                                              1 	(obj:17)
t_x_40                                              1 	(obj:34)
t_x_43                                              1 	(obj:44)
t_x_44                                              1 	(obj:43)
t_x_45                                              1 	(obj:0)
t_x_50                                              1 	(obj:15)
t_x_51                                              1 	(obj:31)
t_x_52                                              1 	(obj:2)
t_x_54                                              1 	(obj:25)
t_x_57                                              1 	(obj:74)
t_x_59                                              1 	(obj:63)
t_x_62                                              1 	(obj:22)
t_x_64                                              1 	(obj:66)
t_x_68                                              1 	(obj:23)
t_x_69                                              1 	(obj:7)
t_x_70                                              1 	(obj:23)
t_x_76                                              1 	(obj:7)
t_x_77                                              1 	(obj:30)
t_x_80                                              1 	(obj:7)
t_x_82                                              1 	(obj:26)
t_x_83                                              1 	(obj:2)
t_x_85                                              1 	(obj:12)
t_x_90                                              1 	(obj:22)
t_x_93                                              1 	(obj:25)
t_x_94                                              1 	(obj:5)
t_x_95                                              1 	(obj:25)
t_x_100                                             1 	(obj:30)
t_x_102                                             1 	(obj:27)
t_x_104                                             1 	(obj:35)
t_x_117                                             1 	(obj:28)
t_x_120                                             1 	(obj:30)
t_x_121                                             1 	(obj:7)
t_x_126                                             1 	(obj:26)
t_x_127                                             1 	(obj:15)
t_x_131                                             1 	(obj:6)
t_x_141                                             1 	(obj:25)
t_x_146                                             1 	(obj:10)
t_x_149                                             1 	(obj:0)
t_x_150                                             1 	(obj:5)
t_x_152                                             1 	(obj:26)
t_x_153                                             1 	(obj:17)
t_x_154                                             1 	(obj:12)
t_x_158                                             1 	(obj:24)
t_x_160                                             1 	(obj:15)
t_x_161                                             1 	(obj:33)
t_x_162                                             1 	(obj:29)
t_x_163                                             1 	(obj:4)
t_x_164                                             1 	(obj:4)
t_x_165                                             1 	(obj:18)
t_x_166                                             1 	(obj:10)
t_x_179                                             1 	(obj:30)
t_x_181                                             1 	(obj:12)
t_x_192                                             1 	(obj:61)
t_x_193                                             1 	(obj:26)
t_x_199                                             1 	(obj:18)
t_x_203                                             1 	(obj:6)
t_x_205                                             1 	(obj:1)
t_x_206                                             1 	(obj:0)
t_x_211                                             1 	(obj:26)
t_x_212                                             1 	(obj:9)
t_x_214                                             1 	(obj:31)
t_x_222                                             1 	(obj:9)
t_x_224                                             1 	(obj:20)
t_x_226                                             1 	(obj:30)
t_x_229                                             1 	(obj:30)
t_x_233                                             1 	(obj:1)
t_x_237                                             1 	(obj:14)
t_x_239                                             1 	(obj:5)
t_x_240                                             1 	(obj:18)
t_x_241                                             1 	(obj:22)
t_x_244                                             1 	(obj:42)
t_x_250                                             1 	(obj:7)
t_x_251                                             1 	(obj:1)
t_x_254                                             1 	(obj:25)
t_x_258                                             1 	(obj:8)
t_x_262                                             1 	(obj:22)
t_x_264                                             1 	(obj:27)
t_x_266                                             1 	(obj:72)
t_x_270                                             1 	(obj:23)
t_x_272                                             1 	(obj:10)
t_x_275                                             1 	(obj:18)
t_x_279                                             1 	(obj:13)
t_x_282                                             1 	(obj:36)
t_x_285                                             1 	(obj:10)
t_x_292                                             1 	(obj:71)
t_x_300                                             1 	(obj:8)
t_x_301                                             1 	(obj:2)
t_x_304                                             1 	(obj:10)
t_x_305                                             1 	(obj:4)
t_x_306                                             1 	(obj:14)
t_x_316                                             1 	(obj:40)
t_x_318                                             1 	(obj:0)
t_x_321                                             1 	(obj:18)
t_x_325                                             1 	(obj:39)
t_x_326                                             1 	(obj:11)
t_x_332                                             1 	(obj:20)
t_x_333                                             1 	(obj:27)
t_x_337                                             1 	(obj:12)
t_x_338                                             1 	(obj:35)
t_x_341                                             1 	(obj:15)
t_x_342                                             1 	(obj:3)
t_x_345                                             1 	(obj:25)
t_x_346                                             1 	(obj:4)
t_x_356                                             1 	(obj:1)
t_x_361                                             1 	(obj:42)
t_x_372                                             1 	(obj:24)
t_x_373                                             1 	(obj:12)
t_x_374                                             1 	(obj:7)
t_x_385                                             1 	(obj:7)
t_x_386                                             1 	(obj:31)
t_x_390                                             1 	(obj:12)
t_x_391                                             1 	(obj:15)
t_x_393                                             1 	(obj:25)
t_x_394                                             1 	(obj:5)
t_x_399                                             1 	(obj:15)
t_x_402                                             1 	(obj:13)
t_x_404                                             1 	(obj:27)
t_x_407                                             1 	(obj:5)
t_x_419                                             1 	(obj:2)
t_x_420                                             1 	(obj:35)
t_x_429                                             1 	(obj:9)
t_x_430                                             1 	(obj:6)
t_x_432                                             1 	(obj:19)
t_x_434                                             1 	(obj:28)
t_x_435                                             1 	(obj:34)
t_x_441                                             1 	(obj:10)
t_x_448                                             1 	(obj:41)
t_x_451                                             1 	(obj:5)
t_x_453                                             1 	(obj:35)
t_x_455                                             1 	(obj:8)
t_x_457                                             1 	(obj:24)
t_x_458                                             1 	(obj:3)
t_x_462                                             1 	(obj:40)
t_x_469                                             1 	(obj:10)
t_x_472                                             1 	(obj:5)
t_x_475                                             1 	(obj:20)
t_x_485                                             1 	(obj:61)
t_x_488                                             1 	(obj:1)
t_x_492                                             1 	(obj:6)
t_x_494                                             1 	(obj:16)
t_x_499                                             1 	(obj:21)
t_x_500                                             1 	(obj:18)
t_x_501                                             1 	(obj:2)
t_x_503                                             1 	(obj:42)
t_x_506                                             1 	(obj:30)
t_x_507                                             1 	(obj:82)
t_x_516                                             1 	(obj:56)
t_x_519                                             1 	(obj:11)
t_x_523                                             1 	(obj:9)
t_x_524                                             1 	(obj:3)
t_x_527                                             1 	(obj:18)
t_x_529                                             1 	(obj:20)
t_x_533                                             1 	(obj:29)
t_x_542                                             1 	(obj:23)
t_x_548                                             1 	(obj:23)
t_x_549                                             1 	(obj:4)
t_x_550                                             1 	(obj:53)
t_x_564                                             1 	(obj:20)
t_x_569                                             1 	(obj:47)
t_x_571                                             1 	(obj:0)
t_x_573                                             1 	(obj:24)
t_x_576                                             1 	(obj:25)
t_x_578                                             1 	(obj:3)
t_x_580                                             1 	(obj:18)
t_x_585                                             1 	(obj:11)
t_x_586                                             1 	(obj:6)
t_x_594                                             1 	(obj:12)
t_x_602                                             1 	(obj:45)
t_x_603                                             1 	(obj:3)
t_x_606                                             1 	(obj:34)
t_x_607                                             1 	(obj:6)
t_x_609                                             1 	(obj:2)
t_x_619                                             1 	(obj:9)
t_x_621                                             1 	(obj:5)
t_x_628                                             1 	(obj:1)
t_x_629                                             1 	(obj:31)
t_x_636                                             1 	(obj:20)
t_x_638                                             1 	(obj:51)
t_x_640                                             1 	(obj:40)
t_x_661                                             1 	(obj:15)
t_x_668                                             1 	(obj:2)
t_x_670                                             1 	(obj:4)
t_x_673                                             1 	(obj:7)
t_x_675                                             1 	(obj:9)
t_x_677                                             1 	(obj:0)
t_x_679                                             1 	(obj:13)
t_x_682                                             1 	(obj:14)
t_x_687                                             1 	(obj:12)
t_x_692                                             1 	(obj:18)
t_x_698                                             1 	(obj:3)
t_x_701                                             1 	(obj:14)
t_x_702                                             1 	(obj:24)
t_x_703                                             1 	(obj:27)
t_x_704                                             1 	(obj:7)
t_x_707                                             1 	(obj:18)
t_x_714                                             1 	(obj:20)
t_x_723                                             1 	(obj:46)
t_x_730                                             1 	(obj:44)
t_x_736                                             1 	(obj:2)
t_x_737                                             1 	(obj:11)
t_x_738                                             1 	(obj:7)
t_x_741                                             1 	(obj:9)
t_x_742                                             1 	(obj:12)
t_x_746                                             1 	(obj:60)
t_x_747                                             1 	(obj:27)
t_x_757                                             1 	(obj:14)
t_x_765                                             1 	(obj:7)
t_x_766                                             1 	(obj:26)
t_x_769                                             1 	(obj:0)
t_x_770                                             1 	(obj:0)
t_x_781                                             1 	(obj:9)
t_x_782                                             1 	(obj:17)
t_x_784                                             1 	(obj:1)
t_x_789                                             1 	(obj:6)
t_x_791                                             1 	(obj:14)
t_x_792                                             1 	(obj:20)
t_x_793                                             1 	(obj:20)
t_x_797                                             1 	(obj:11)
t_x_799                                             1 	(obj:25)
t_x_800                                             1 	(obj:26)
t_x_801                                             1 	(obj:33)
t_x_804                                             1 	(obj:1)
t_x_805                                             1 	(obj:15)
t_x_806                                             1 	(obj:3)
t_x_810                                             1 	(obj:45)
t_x_813                                             1 	(obj:42)
t_x_814                                             1 	(obj:25)
t_x_816                                             1 	(obj:19)
t_x_827                                             1 	(obj:47)
t_x_828                                             1 	(obj:23)
t_x_829                                             1 	(obj:13)
t_x_833                                             1 	(obj:0)
t_x_835                                             1 	(obj:44)
t_x_836                                             1 	(obj:50)
t_x_842                                             1 	(obj:15)
t_x_846                                             1 	(obj:12)
t_x_848                                             1 	(obj:10)
t_x_852                                             1 	(obj:18)
t_x_854                                             1 	(obj:5)
t_x_856                                             1 	(obj:33)
t_x_860                                             1 	(obj:37)
t_x_862                                             1 	(obj:29)
t_x_863                                             1 	(obj:16)
t_x_868                                             1 	(obj:31)
t_x_875                                             1 	(obj:17)
t_x_886                                             1 	(obj:7)
t_x_889                                             1 	(obj:0)
t_x_890                                             1 	(obj:16)
t_x_891                                             1 	(obj:8)
t_x_892                                             1 	(obj:43)
t_x_893                                             1 	(obj:26)
t_x_897                                             1 	(obj:4)
t_x_904                                             1 	(obj:18)
t_x_907                                             1 	(obj:28)
t_x_910                                             1 	(obj:43)
t_x_914                                             1 	(obj:13)
t_x_917                                             1 	(obj:8)
t_x_918                                             1 	(obj:25)
t_x_919                                             1 	(obj:22)
t_x_923                                             1 	(obj:47)
t_x_924                                             1 	(obj:8)
t_x_929                                             1 	(obj:4)
t_x_933                                             1 	(obj:42)
t_x_941                                             1 	(obj:19)
t_x_945                                             1 	(obj:0)
t_x_951                                             1 	(obj:18)
t_x_952                                             1 	(obj:2)
t_x_954                                             1 	(obj:33)
t_x_957                                             1 	(obj:13)
t_x_958                                             1 	(obj:36)
t_x_960                                             1 	(obj:22)
t_x_961                                             1 	(obj:23)
t_x_966                                             1 	(obj:0)
t_x_970                                             1 	(obj:56)
t_x_975                                             1 	(obj:3)
t_x_977                                             1 	(obj:2)
t_x_979                                             1 	(obj:6)
t_x_980                                             1 	(obj:20)
t_x_986                                             1 	(obj:5)
t_x_990                                             1 	(obj:10)
t_x_998                                             1 	(obj:43)
t_x_1004                                            1 	(obj:22)
t_x_1007                                            1 	(obj:52)
t_x_1008                                            1 	(obj:39)
t_x_1009                                            1 	(obj:10)
t_x_1015                                            1 	(obj:17)
t_x_1016                                            1 	(obj:10)
t_x_1017                                            1 	(obj:16)
t_x_1021                                            1 	(obj:10)
t_x_1026                                            1 	(obj:13)
t_x_1029                                            1 	(obj:12)
t_x_1032                                            1 	(obj:11)
t_x_1034                                            1 	(obj:1)
t_x_1048                                            1 	(obj:29)
t_x_1051                                            1 	(obj:32)
t_x_1053                                            1 	(obj:37)
t_x_1056                                            1 	(obj:10)
t_x_1068                                            1 	(obj:2)
t_x_1069                                            1 	(obj:39)
t_x_1074                                            1 	(obj:28)
t_x_1075                                            1 	(obj:11)
t_x_1076                                            1 	(obj:56)
t_x_1078                                            1 	(obj:30)
t_x_1081                                            1 	(obj:18)
t_x_1082                                            1 	(obj:1)
t_x_1084                                            1 	(obj:0)
t_x_1090                                            1 	(obj:5)
t_x_1097                                            1 	(obj:37)
t_x_1103                                            1 	(obj:16)
t_x_1104                                            1 	(obj:18)
t_x_1107                                            1 	(obj:27)
t_x_1109                                            1 	(obj:15)
t_x_1110                                            1 	(obj:12)
t_x_1113                                            1 	(obj:6)
t_x_1122                                            1 	(obj:31)
t_x_1127                                            1 	(obj:1)
t_x_1128                                            1 	(obj:8)
t_x_1129                                            1 	(obj:32)
t_x_1133                                            1 	(obj:45)
t_x_1139                                            1 	(obj:24)
t_x_1140                                            1 	(obj:7)
t_x_1141                                            1 	(obj:6)
t_x_1144                                            1 	(obj:26)
t_x_1147                                            1 	(obj:22)
t_x_1151                                            1 	(obj:22)
t_x_1161                                            1 	(obj:9)
t_x_1181                                            1 	(obj:13)
t_x_1190                                            1 	(obj:19)
t_x_1195                                            1 	(obj:5)
t_x_1199                                            1 	(obj:1)
t_x_1205                                            1 	(obj:20)
t_x_1207                                            1 	(obj:26)
t_x_1208                                            1 	(obj:18)
t_x_1210                                            1 	(obj:41)
t_x_1211                                            1 	(obj:37)
t_x_1217                                            1 	(obj:5)
t_x_1218                                            1 	(obj:15)
t_x_1219                                            1 	(obj:65)
t_x_1222                                            1 	(obj:24)
t_x_1231                                            1 	(obj:54)
t_x_1233                                            1 	(obj:1)
t_x_1241                                            1 	(obj:33)
t_x_1249                                            1 	(obj:39)
t_x_1255                                            1 	(obj:41)
t_x_1258                                            1 	(obj:37)
t_x_1259                                            1 	(obj:14)
t_x_1260                                            1 	(obj:8)
t_x_1265                                            1 	(obj:25)
t_x_1272                                            1 	(obj:19)
t_x_1273                                            1 	(obj:22)
t_x_1284                                            1 	(obj:10)
t_x_1288                                            1 	(obj:2)
t_x_1290                                            1 	(obj:0)
t_x_1291                                            1 	(obj:0)
t_x_1292                                            1 	(obj:36)
t_x_1298                                            1 	(obj:17)
t_x_1300                                            1 	(obj:14)
t_x_1301                                            1 	(obj:22)
t_x_1304                                            1 	(obj:45)
t_x_1306                                            1 	(obj:0)
t_x_1308                                            1 	(obj:4)
t_x_1309                                            1 	(obj:25)
t_x_1310                                            1 	(obj:17)
t_x_1311                                            1 	(obj:22)
t_x_1313                                            1 	(obj:20)
t_x_1314                                            1 	(obj:10)
t_x_1316                                            1 	(obj:2)
t_x_1317                                            1 	(obj:14)
t_x_1319                                            1 	(obj:28)
t_x_1320                                            1 	(obj:44)
t_x_1321                                            1 	(obj:11)
t_x_1324                                            1 	(obj:23)
t_x_1329                                            1 	(obj:6)
t_x_1331                                            1 	(obj:42)
t_x_1335                                            1 	(obj:12)
t_x_1339                                            1 	(obj:5)
t_x_1343                                            1 	(obj:14)
t_x_1347                                            1 	(obj:11)
t_x_1355                                            1 	(obj:8)
t_x_1357                                            1 	(obj:45)
t_x_1360                                            1 	(obj:15)
t_x_1363                                            1 	(obj:43)
t_x_1369                                            1 	(obj:33)
t_x_1370                                            1 	(obj:8)
t_x_1379                                            1 	(obj:35)
t_x_1380                                            1 	(obj:2)
t_x_1381                                            1 	(obj:19)
t_x_1382                                            1 	(obj:7)
t_x_1383                                            1 	(obj:54)
t_x_1385                                            1 	(obj:16)
t_x_1386                                            1 	(obj:18)
t_x_1387                                            1 	(obj:2)
t_x_1390                                            1 	(obj:37)
t_x_1393                                            1 	(obj:6)
t_x_1396                                            1 	(obj:18)
t_x_1400                                            1 	(obj:5)
t_x_1402                                            1 	(obj:30)
t_x_1403                                            1 	(obj:22)
t_x_1408                                            1 	(obj:15)
t_x_1413                                            1 	(obj:3)
t_x_1425                                            1 	(obj:10)
t_x_1426                                            1 	(obj:13)
t_x_1427                                            1 	(obj:7)
t_x_1428                                            1 	(obj:4)
t_x_1430                                            1 	(obj:37)
t_x_1438                                            1 	(obj:33)
t_x_1439                                            1 	(obj:19)
t_x_1448                                            1 	(obj:35)
t_x_1452                                            1 	(obj:8)
t_x_1457                                            1 	(obj:9)
t_x_1458                                            1 	(obj:12)
t_x_1461                                            1 	(obj:44)
t_x_1464                                            1 	(obj:31)
t_x_1468                                            1 	(obj:22)
t_x_1470                                            1 	(obj:0)
t_x_1475                                            1 	(obj:9)
t_x_1476                                            1 	(obj:6)
t_x_1479                                            1 	(obj:8)
t_x_1481                                            1 	(obj:27)
t_x_1483                                            1 	(obj:6)
t_x_1485                                            1 	(obj:3)
t_x_1497                                            1 	(obj:8)
t_x_1498                                            1 	(obj:10)
t_x_1500                                            1 	(obj:34)
t_x_1501                                            1 	(obj:15)
t_x_1504                                            1 	(obj:1)
t_x_1508                                            1 	(obj:16)
t_x_1509                                            1 	(obj:6)
t_x_1510                                            1 	(obj:25)
t_x_1515                                            1 	(obj:5)
t_x_1516                                            1 	(obj:2)
t_x_1519                                            1 	(obj:13)
t_x_1527                                            1 	(obj:20)
t_x_1530                                            1 	(obj:15)
t_x_1535                                            1 	(obj:56)
t_x_1538                                            1 	(obj:30)
t_x_1540                                            1 	(obj:1)
t_x_1549                                            1 	(obj:0)
t_x_1553                                            1 	(obj:16)
t_x_1559                                            1 	(obj:12)
t_x_1561                                            1 	(obj:9)
t_x_1563                                            1 	(obj:33)
t_x_1572                                            1 	(obj:30)
t_x_1573                                            1 	(obj:22)
t_x_1582                                            1 	(obj:33)
t_x_1588                                            1 	(obj:19)
t_x_1589                                            1 	(obj:16)
t_x_1590                                            1 	(obj:3)
t_x_1593                                            1 	(obj:15)
t_x_1594                                            1 	(obj:9)
t_x_1597                                            1 	(obj:32)
t_x_1600                                            1 	(obj:7)
t_x_1603                                            1 	(obj:25)
t_x_1606                                            1 	(obj:27)
t_x_1607                                            1 	(obj:39)
t_x_1612                                            1 	(obj:33)
t_x_1614                                            1 	(obj:6)
t_x_1615                                            1 	(obj:20)
t_x_1617                                            1 	(obj:44)
t_x_1621                                            1 	(obj:11)
t_x_1627                                            1 	(obj:27)
t_x_1631                                            1 	(obj:9)
t_x_1634                                            1 	(obj:40)
t_x_1636                                            1 	(obj:28)
t_x_1639                                            1 	(obj:22)
t_x_1642                                            1 	(obj:6)
t_x_1643                                            1 	(obj:13)
t_x_1649                                            1 	(obj:0)
t_x_1651                                            1 	(obj:54)
t_x_1655                                            1 	(obj:31)
t_x_1660                                            1 	(obj:7)
t_x_1663                                            1 	(obj:38)
t_x_1667                                            1 	(obj:8)
t_x_1671                                            1 	(obj:41)
t_x_1681                                            1 	(obj:42)
t_x_1686                                            1 	(obj:13)
t_x_1689                                            1 	(obj:2)
t_x_1690                                            1 	(obj:41)
t_x_1695                                            1 	(obj:33)
t_x_1698                                            1 	(obj:56)
t_x_1706                                            1 	(obj:1)
t_x_1707                                            1 	(obj:59)
t_x_1709                                            1 	(obj:5)
t_x_1716                                            1 	(obj:11)
t_x_1720                                            1 	(obj:2)
t_x_1721                                            1 	(obj:25)
t_x_1726                                            1 	(obj:3)
t_x_1727                                            1 	(obj:13)
t_x_1728                                            1 	(obj:26)
t_x_1730                                            1 	(obj:21)
t_x_1732                                            1 	(obj:55)
t_x_1734                                            1 	(obj:23)
t_x_1737                                            1 	(obj:24)
t_x_1741                                            1 	(obj:27)
t_x_1743                                            1 	(obj:20)
t_x_1747                                            1 	(obj:23)
t_x_1752                                            1 	(obj:16)
t_x_1753                                            1 	(obj:36)
t_x_1754                                            1 	(obj:5)
t_x_1764                                            1 	(obj:17)
t_x_1768                                            1 	(obj:8)
t_x_1770                                            1 	(obj:7)
t_x_1772                                            1 	(obj:30)
t_x_1774                                            1 	(obj:33)
t_x_1775                                            1 	(obj:49)
t_x_1776                                            1 	(obj:12)
t_x_1778                                            1 	(obj:20)
t_x_1780                                            1 	(obj:16)
t_x_1781                                            1 	(obj:32)
t_x_1782                                            1 	(obj:30)
t_x_1784                                            1 	(obj:37)
t_x_1785                                            1 	(obj:34)
t_x_1788                                            1 	(obj:1)
t_x_1790                                            1 	(obj:6)
t_x_1793                                            1 	(obj:18)
t_x_1794                                            1 	(obj:22)
t_x_1798                                            1 	(obj:4)
t_x_1813                                            1 	(obj:0)
t_x_1818                                            1 	(obj:10)
t_x_1819                                            1 	(obj:17)
t_x_1825                                            1 	(obj:0)
t_x_1826                                            1 	(obj:40)
t_x_1827                                            1 	(obj:24)
t_x_1830                                            1 	(obj:16)
t_x_1833                                            1 	(obj:46)
t_x_1834                                            1 	(obj:5)
t_x_1835                                            1 	(obj:32)
t_x_1836                                            1 	(obj:12)
t_x_1837                                            1 	(obj:7)
t_x_1839                                            1 	(obj:21)
t_x_1841                                            1 	(obj:4)
t_x_1842                                            1 	(obj:27)
t_x_1844                                            1 	(obj:12)
t_x_1848                                            1 	(obj:24)
t_x_1849                                            1 	(obj:34)
t_x_1852                                            1 	(obj:8)
t_x_1855                                            1 	(obj:28)
t_x_1856                                            1 	(obj:11)
t_x_1857                                            1 	(obj:4)
t_x_1858                                            1 	(obj:25)
t_x_1864                                            1 	(obj:10)
t_x_1865                                            1 	(obj:23)
t_x_1866                                            1 	(obj:37)
t_x_1867                                            1 	(obj:6)
t_x_1868                                            1 	(obj:41)
t_x_1869                                            1 	(obj:0)
t_x_1874                                            1 	(obj:21)
t_x_1877                                            1 	(obj:20)
t_x_1879                                            1 	(obj:33)
t_x_1881                                            1 	(obj:3)
t_x_1886                                            1 	(obj:20)
t_x_1889                                            1 	(obj:5)
t_x_1896                                            1 	(obj:3)
t_x_1897                                            1 	(obj:23)
t_x_1903                                            1 	(obj:14)
t_x_1904                                            1 	(obj:26)
t_x_1905                                            1 	(obj:4)
t_x_1917                                            1 	(obj:7)
t_x_1918                                            1 	(obj:5)
t_x_1919                                            1 	(obj:39)
t_x_1920                                            1 	(obj:17)
t_x_1922                                            1 	(obj:10)
t_x_1925                                            1 	(obj:22)
t_x_1926                                            1 	(obj:46)
t_x_1935                                            1 	(obj:4)
t_x_1937                                            1 	(obj:37)
t_x_1938                                            1 	(obj:3)
t_x_1939                                            1 	(obj:13)
t_x_1945                                            1 	(obj:10)
t_x_1948                                            1 	(obj:2)
t_x_1954                                            1 	(obj:29)
t_x_1960                                            1 	(obj:24)
t_x_1964                                            1 	(obj:13)
t_x_1968                                            1 	(obj:8)
t_x_1970                                            1 	(obj:15)
t_x_1974                                            1 	(obj:9)
t_x_1978                                            1 	(obj:36)
t_x_1980                                            1 	(obj:2)
t_x_1981                                            1 	(obj:17)
t_x_1990                                            1 	(obj:1)
t_x_1991                                            1 	(obj:14)
t_x_1997                                            1 	(obj:19)
t_x_1998                                            1 	(obj:11)
